% demand
num_movements = 30;
loading_factor = [1700, 1250, 900, 1550, 2000, 1700, 1150, 1300, 1050, 1250, 1950, 1150, 1200, 1250, 950, 1100, 1250, 1050, 1700, 1300, 1400, 1950, 1350, 1550, 1800, 1950, 1500, 1000, 1800, 1550];
pickup_time = [0, 0, 0, 0, 0, 0, 0, 1, 1, 1, 1, 2, 2, 3, 3, 7, 7, 7, 7, 8, 8, 8, 8, 8, 9, 10, 10, 12, 12, 12];
delivery_time = [6, 4, 1, 1, 1, 1, 5, 2, 2, 2, 8, 7, 7, 4, 9, 8, 9, 9, 8, 9, 9, 9, 9, 9, 10, 11, 11, 13, 14, 13];

% transporter definition
total_capacity = 11000;
num_decks = 4;
capacity = [3000, 3000, 1000, 4000];

% ways out of decks
num_ways_out = 2;
paths_out = array3d(decks, ways_out, decks, [
% ways out of deck d1
2, 4, 0, 0, 3, 4, 0, 0, 

% ways out of deck d2
4, 0, 0, 0, 0, 0, 0, 0,	

% ways out of deck d3
4, 0, 0, 0, 0, 0, 0, 0,	

% ways out of deck d4
0, 0, 0, 0,	0, 0, 0, 0,	

]);

